c FILE /home/rafael/Documents/HappySet/MIHS/inputs/happygen/output/graph_scale_free_k7_p0.1_v100_20241127_083852.txt
c SOURCE This is a scale-free graph formed for the happy graph colouring problem.
c DESCRIPTION It was generated using the problem generator of Rhyd Lewis
c
c GRAPH STATS
c Seed                             = 714450926
c Number of Nodes                  = 100
c Number of colours k              = 7
c Number of pre-assignments        = 10
c Number of links per new node     = 5
c Density                          = 0.0979798
c 
c The degrees of nodes 1 to 100, respectively, are as follows 
c [37, 37, 34, 28, 26, 24, 23, 20, 19, 18, 18, 17, 17, 17, 15, 14, 13, 13, 13, 12, 12, 12, 12, 12, 12, 11, 
c  11, 10, 10, 10, 9, 9, 9, 9, 9, 9, 8, 8, 8, 8, 8, 8, 8, 8, 7, 7, 7, 7, 7, 7, 7, 
c  7, 7, 7, 7, 7, 7, 7, 6, 6, 6, 6, 6, 6, 6, 6, 6, 6, 6, 6, 6, 6, 6, 6, 6, 5, 
c  5, 5, 5, 5, 5, 5, 5, 5, 5, 5, 5, 5, 5, 5, 5, 5, 5, 5, 5, 5, 5, 5, 5, 5] 
c  
p edge 100 485 7
e 1 2
e 1 3
e 1 4
e 1 5
e 1 6
e 1 8
e 1 11
e 1 12
e 1 13
e 1 18
e 1 19
e 1 22
e 1 23
e 1 27
e 1 31
e 1 34
e 1 37
e 1 38
e 1 39
e 1 40
e 1 41
e 1 43
e 1 45
e 1 49
e 1 54
e 1 57
e 1 59
e 1 60
e 1 64
e 1 69
e 1 71
e 1 72
e 1 74
e 1 76
e 1 77
e 1 85
e 1 98
e 2 3
e 2 4
e 2 5
e 2 6
e 2 7
e 2 8
e 2 10
e 2 11
e 2 12
e 2 13
e 2 14
e 2 15
e 2 16
e 2 17
e 2 20
e 2 21
e 2 25
e 2 26
e 2 28
e 2 32
e 2 37
e 2 45
e 2 50
e 2 52
e 2 56
e 2 59
e 2 60
e 2 71
e 2 75
e 2 77
e 2 83
e 2 94
e 2 95
e 2 96
e 2 97
e 2 99
e 3 4
e 3 5
e 3 6
e 3 9
e 3 10
e 3 12
e 3 13
e 3 14
e 3 15
e 3 16
e 3 20
e 3 21
e 3 24
e 3 26
e 3 34
e 3 39
e 3 40
e 3 45
e 3 49
e 3 54
e 3 57
e 3 59
e 3 61
e 3 62
e 3 65
e 3 66
e 3 67
e 3 77
e 3 79
e 3 80
e 3 94
e 3 99
e 4 6
e 4 8
e 4 9
e 4 10
e 4 12
e 4 13
e 4 17
e 4 21
e 4 24
e 4 26
e 4 28
e 4 35
e 4 37
e 4 43
e 4 46
e 4 50
e 4 51
e 4 55
e 4 58
e 4 60
e 4 74
e 4 85
e 4 89
e 4 92
e 4 93
e 5 6
e 5 8
e 5 9
e 5 10
e 5 12
e 5 15
e 5 16
e 5 18
e 5 20
e 5 21
e 5 25
e 5 26
e 5 29
e 5 31
e 5 41
e 5 42
e 5 45
e 5 46
e 5 47
e 5 48
e 5 50
e 5 52
e 5 78
e 6 7
e 6 8
e 6 11
e 6 12
e 6 13
e 6 19
e 6 20
e 6 22
e 6 26
e 6 28
e 6 31
e 6 39
e 6 59
e 6 65
e 6 67
e 6 80
e 6 82
e 6 97
e 6 100
e 7 11
e 7 21
e 7 23
e 7 26
e 7 30
e 7 32
e 7 33
e 7 35
e 7 46
e 7 47
e 7 53
e 7 55
e 7 58
e 7 59
e 7 62
e 7 72
e 7 82
e 7 86
e 7 89
e 7 98
e 7 100
e 8 17
e 8 18
e 8 22
e 8 24
e 8 34
e 8 36
e 8 39
e 8 44
e 8 63
e 8 73
e 8 78
e 8 81
e 8 87
e 8 88
e 8 93
e 9 12
e 9 13
e 9 22
e 9 28
e 9 31
e 9 33
e 9 37
e 9 39
e 9 45
e 9 49
e 9 51
e 9 57
e 9 65
e 9 79
e 9 90
e 9 100
e 10 14
e 10 17
e 10 20
e 10 25
e 10 27
e 10 34
e 10 44
e 10 46
e 10 48
e 10 74
e 10 78
e 10 79
e 10 83
e 10 87
e 11 12
e 11 17
e 11 19
e 11 27
e 11 32
e 11 40
e 11 52
e 11 76
e 11 83
e 11 85
e 11 86
e 11 87
e 11 91
e 11 97
e 12 15
e 12 17
e 12 28
e 12 36
e 12 37
e 12 57
e 12 70
e 12 80
e 12 89
e 13 15
e 13 17
e 13 21
e 13 23
e 13 31
e 13 38
e 13 42
e 13 47
e 13 55
e 13 88
e 13 96
e 14 21
e 14 29
e 14 31
e 14 32
e 14 33
e 14 40
e 14 41
e 14 44
e 14 49
e 14 56
e 14 62
e 14 63
e 14 66
e 14 68
e 15 18
e 15 27
e 15 29
e 15 40
e 15 42
e 15 53
e 15 58
e 15 61
e 15 64
e 15 90
e 16 25
e 16 36
e 16 43
e 16 44
e 16 46
e 16 47
e 16 49
e 16 68
e 16 80
e 16 88
e 16 94
e 17 19
e 17 30
e 17 38
e 17 75
e 17 97
e 17 98
e 18 22
e 18 23
e 18 24
e 18 31
e 18 38
e 18 60
e 18 68
e 18 94
e 18 95
e 19 29
e 19 35
e 19 44
e 19 51
e 19 54
e 19 84
e 19 85
e 19 94
e 19 98
e 20 27
e 20 29
e 20 32
e 20 41
e 20 46
e 20 47
e 20 93
e 21 25
e 21 38
e 21 60
e 21 64
e 21 78
e 22 24
e 22 48
e 22 55
e 22 62
e 22 79
e 22 84
e 22 98
e 23 40
e 23 43
e 23 58
e 23 62
e 23 64
e 23 76
e 23 82
e 23 85
e 24 42
e 24 48
e 24 50
e 24 61
e 24 69
e 24 70
e 24 91
e 25 30
e 25 31
e 25 48
e 25 69
e 25 80
e 25 84
e 25 95
e 26 35
e 26 51
e 26 53
e 26 68
e 26 89
e 27 33
e 27 67
e 27 76
e 27 78
e 27 88
e 27 93
e 28 30
e 28 41
e 28 61
e 28 63
e 28 96
e 29 38
e 29 65
e 29 73
e 29 76
e 29 100
e 30 32
e 30 33
e 30 54
e 30 70
e 30 74
e 30 96
e 31 43
e 32 54
e 32 71
e 32 81
e 33 56
e 33 66
e 33 79
e 33 87
e 34 50
e 34 52
e 34 73
e 34 83
e 34 95
e 35 42
e 35 56
e 35 72
e 35 84
e 35 92
e 36 48
e 36 49
e 36 68
e 36 70
e 36 71
e 36 82
e 37 69
e 37 86
e 37 92
e 38 61
e 38 64
e 39 56
e 39 81
e 39 87
e 40 55
e 40 65
e 41 52
e 41 69
e 41 81
e 42 60
e 42 63
e 42 67
e 43 51
e 43 66
e 43 97
e 44 81
e 44 84
e 44 91
e 45 53
e 45 63
e 46 99
e 47 50
e 47 83
e 48 70
e 49 99
e 50 90
e 51 66
e 51 72
e 52 53
e 52 92
e 53 67
e 53 89
e 54 72
e 54 91
e 55 73
e 55 91
e 56 86
e 56 88
e 57 65
e 57 75
e 57 95
e 58 71
e 58 73
e 58 75
e 59 77
e 61 77
e 62 90
e 63 86
e 64 96
e 66 71
e 67 90
e 68 92
e 69 82
e 70 93
e 72 75
e 73 74
e 74 100
e 75 99
n 21 7
n 54 5
n 58 3
n 64 7
n 65 2
n 81 7
n 84 4
n 93 1
n 98 1
n 100 6
